problems/csplib-prob024/Langford-positional-models/noch/O0/minion/model-langford_02_15-solution000001.solution
language Essence 1.3

letting pos be
        function((1, 1) --> 1, (1, 2) --> 3, (2, 1) --> 2, (2, 2) --> 5, (3, 1) --> 4, (3, 2) --> 8, (4, 1) --> 6,
                 (4, 2) --> 11, (5, 1) --> 12, (5, 2) --> 18, (6, 1) --> 14, (6, 2) --> 21, (7, 1) --> 15,
                 (7, 2) --> 23, (8, 1) --> 19, (8, 2) --> 28, (9, 1) --> 20, (9, 2) --> 30, (10, 1) --> 16,
                 (10, 2) --> 27, (11, 1) --> 17, (11, 2) --> 29, (12, 1) --> 13, (12, 2) --> 26, (13, 1) --> 10,
                 (13, 2) --> 24, (14, 1) --> 7, (14, 2) --> 22, (15, 1) --> 9, (15, 2) --> 25)
